c description: Tseitin formula on , with even charge
c generator: CNFgen (0.9.0)
c copyright: (C) 2012-2020 Massimo Lauria <massimo.lauria@uniroma1.it>
c url: https://massimolauria.net/cnfgen
c
p cnf 40 291
1 -2 0
-1 2 0
3 4 -5 0
3 -4 5 0
-3 4 5 0
-3 -4 -5 0
1 6 7 8 -9 0
1 6 7 -8 9 0
1 6 -7 8 9 0
1 6 -7 -8 -9 0
1 -6 7 8 9 0
1 -6 7 -8 -9 0
1 -6 -7 8 -9 0
1 -6 -7 -8 9 0
-1 6 7 8 9 0
-1 6 7 -8 -9 0
-1 6 -7 8 -9 0
-1 6 -7 -8 9 0
-1 -6 7 8 -9 0
-1 -6 7 -8 9 0
-1 -6 -7 8 9 0
-1 -6 -7 -8 -9 0
10 11 12 -13 0
10 11 -12 13 0
10 -11 12 13 0
10 -11 -12 -13 0
-10 11 12 13 0
-10 11 -12 -13 0
-10 -11 12 -13 0
-10 -11 -12 13 0
6 14 15 16 17 -18 0
6 14 15 16 -17 18 0
6 14 15 -16 17 18 0
6 14 15 -16 -17 -18 0
6 14 -15 16 17 18 0
6 14 -15 16 -17 -18 0
6 14 -15 -16 17 -18 0
6 14 -15 -16 -17 18 0
6 -14 15 16 17 18 0
6 -14 15 16 -17 -18 0
6 -14 15 -16 17 -18 0
6 -14 15 -16 -17 18 0
6 -14 -15 16 17 -18 0
6 -14 -15 16 -17 18 0
6 -14 -15 -16 17 18 0
6 -14 -15 -16 -17 -18 0
-6 14 15 16 17 18 0
-6 14 15 16 -17 -18 0
-6 14 15 -16 17 -18 0
-6 14 15 -16 -17 18 0
-6 14 -15 16 17 -18 0
-6 14 -15 16 -17 18 0
-6 14 -15 -16 17 18 0
-6 14 -15 -16 -17 -18 0
-6 -14 15 16 17 -18 0
-6 -14 15 16 -17 18 0
-6 -14 15 -16 17 18 0
-6 -14 15 -16 -17 -18 0
-6 -14 -15 16 17 18 0
-6 -14 -15 16 -17 -18 0
-6 -14 -15 -16 17 -18 0
-6 -14 -15 -16 -17 18 0
2 19 20 21 22 -23 0
2 19 20 21 -22 23 0
2 19 20 -21 22 23 0
2 19 20 -21 -22 -23 0
2 19 -20 21 22 23 0
2 19 -20 21 -22 -23 0
2 19 -20 -21 22 -23 0
2 19 -20 -21 -22 23 0
2 -19 20 21 22 23 0
2 -19 20 21 -22 -23 0
2 -19 20 -21 22 -23 0
2 -19 20 -21 -22 23 0
2 -19 -20 21 22 -23 0
2 -19 -20 21 -22 23 0
2 -19 -20 -21 22 23 0
2 -19 -20 -21 -22 -23 0
-2 19 20 21 22 23 0
-2 19 20 21 -22 -23 0
-2 19 20 -21 22 -23 0
-2 19 20 -21 -22 23 0
-2 19 -20 21 22 -23 0
-2 19 -20 21 -22 23 0
-2 19 -20 -21 22 23 0
-2 19 -20 -21 -22 -23 0
-2 -19 20 21 22 -23 0
-2 -19 20 21 -22 23 0
-2 -19 20 -21 22 23 0
-2 -19 20 -21 -22 -23 0
-2 -19 -20 21 22 23 0
-2 -19 -20 21 -22 -23 0
-2 -19 -20 -21 22 -23 0
-2 -19 -20 -21 -22 23 0
24 25 -26 0
24 -25 26 0
-24 25 26 0
-24 -25 -26 0
3 14 27 -28 0
3 14 -27 28 0
3 -14 27 28 0
3 -14 -27 -28 0
-3 14 27 28 0
-3 14 -27 -28 0
-3 -14 27 -28 0
-3 -14 -27 28 0
7 10 15 29 30 -31 0
7 10 15 29 -30 31 0
7 10 15 -29 30 31 0
7 10 15 -29 -30 -31 0
7 10 -15 29 30 31 0
7 10 -15 29 -30 -31 0
7 10 -15 -29 30 -31 0
7 10 -15 -29 -30 31 0
7 -10 15 29 30 31 0
7 -10 15 29 -30 -31 0
7 -10 15 -29 30 -31 0
7 -10 15 -29 -30 31 0
7 -10 -15 29 30 -31 0
7 -10 -15 29 -30 31 0
7 -10 -15 -29 30 31 0
7 -10 -15 -29 -30 -31 0
-7 10 15 29 30 31 0
-7 10 15 29 -30 -31 0
-7 10 15 -29 30 -31 0
-7 10 15 -29 -30 31 0
-7 10 -15 29 30 -31 0
-7 10 -15 29 -30 31 0
-7 10 -15 -29 30 31 0
-7 10 -15 -29 -30 -31 0
-7 -10 15 29 30 -31 0
-7 -10 15 29 -30 31 0
-7 -10 15 -29 30 31 0
-7 -10 15 -29 -30 -31 0
-7 -10 -15 29 30 31 0
-7 -10 -15 29 -30 -31 0
-7 -10 -15 -29 30 -31 0
-7 -10 -15 -29 -30 31 0
19 27 -32 0
19 -27 32 0
-19 27 32 0
-19 -27 -32 0
-33 0
4 -34 0
-4 34 0
11 16 20 24 33 -35 0
11 16 20 24 -33 35 0
11 16 20 -24 33 35 0
11 16 20 -24 -33 -35 0
11 16 -20 24 33 35 0
11 16 -20 24 -33 -35 0
11 16 -20 -24 33 -35 0
11 16 -20 -24 -33 35 0
11 -16 20 24 33 35 0
11 -16 20 24 -33 -35 0
11 -16 20 -24 33 -35 0
11 -16 20 -24 -33 35 0
11 -16 -20 24 33 -35 0
11 -16 -20 24 -33 35 0
11 -16 -20 -24 33 35 0
11 -16 -20 -24 -33 -35 0
-11 16 20 24 33 35 0
-11 16 20 24 -33 -35 0
-11 16 20 -24 33 -35 0
-11 16 20 -24 -33 35 0
-11 16 -20 24 33 -35 0
-11 16 -20 24 -33 35 0
-11 16 -20 -24 33 35 0
-11 16 -20 -24 -33 -35 0
-11 -16 20 24 33 -35 0
-11 -16 20 24 -33 35 0
-11 -16 20 -24 33 35 0
-11 -16 20 -24 -33 -35 0
-11 -16 -20 24 33 35 0
-11 -16 -20 24 -33 -35 0
-11 -16 -20 -24 33 -35 0
-11 -16 -20 -24 -33 35 0
8 21 28 36 -37 0
8 21 28 -36 37 0
8 21 -28 36 37 0
8 21 -28 -36 -37 0
8 -21 28 36 37 0
8 -21 28 -36 -37 0
8 -21 -28 36 -37 0
8 -21 -28 -36 37 0
-8 21 28 36 37 0
-8 21 28 -36 -37 0
-8 21 -28 36 -37 0
-8 21 -28 -36 37 0
-8 -21 28 36 -37 0
-8 -21 28 -36 37 0
-8 -21 -28 36 37 0
-8 -21 -28 -36 -37 0
9 -34 0
-9 34 0
17 22 36 -38 0
17 22 -36 38 0
17 -22 36 38 0
17 -22 -36 -38 0
-17 22 36 38 0
-17 22 -36 -38 0
-17 -22 36 -38 0
-17 -22 -36 38 0
29 32 -37 0
29 -32 37 0
-29 32 37 0
-29 -32 -37 0
5 12 -39 0
5 -12 39 0
-5 12 39 0
-5 -12 -39 0
23 25 30 38 -40 0
23 25 30 -38 40 0
23 25 -30 38 40 0
23 25 -30 -38 -40 0
23 -25 30 38 40 0
23 -25 30 -38 -40 0
23 -25 -30 38 -40 0
23 -25 -30 -38 40 0
-23 25 30 38 40 0
-23 25 30 -38 -40 0
-23 25 -30 38 -40 0
-23 25 -30 -38 40 0
-23 -25 30 38 -40 0
-23 -25 30 -38 40 0
-23 -25 -30 38 40 0
-23 -25 -30 -38 -40 0
13 18 26 31 35 39 -40 0
13 18 26 31 35 -39 40 0
13 18 26 31 -35 39 40 0
13 18 26 31 -35 -39 -40 0
13 18 26 -31 35 39 40 0
13 18 26 -31 35 -39 -40 0
13 18 26 -31 -35 39 -40 0
13 18 26 -31 -35 -39 40 0
13 18 -26 31 35 39 40 0
13 18 -26 31 35 -39 -40 0
13 18 -26 31 -35 39 -40 0
13 18 -26 31 -35 -39 40 0
13 18 -26 -31 35 39 -40 0
13 18 -26 -31 35 -39 40 0
13 18 -26 -31 -35 39 40 0
13 18 -26 -31 -35 -39 -40 0
13 -18 26 31 35 39 40 0
13 -18 26 31 35 -39 -40 0
13 -18 26 31 -35 39 -40 0
13 -18 26 31 -35 -39 40 0
13 -18 26 -31 35 39 -40 0
13 -18 26 -31 35 -39 40 0
13 -18 26 -31 -35 39 40 0
13 -18 26 -31 -35 -39 -40 0
13 -18 -26 31 35 39 -40 0
13 -18 -26 31 35 -39 40 0
13 -18 -26 31 -35 39 40 0
13 -18 -26 31 -35 -39 -40 0
13 -18 -26 -31 35 39 40 0
13 -18 -26 -31 35 -39 -40 0
13 -18 -26 -31 -35 39 -40 0
13 -18 -26 -31 -35 -39 40 0
-13 18 26 31 35 39 40 0
-13 18 26 31 35 -39 -40 0
-13 18 26 31 -35 39 -40 0
-13 18 26 31 -35 -39 40 0
-13 18 26 -31 35 39 -40 0
-13 18 26 -31 35 -39 40 0
-13 18 26 -31 -35 39 40 0
-13 18 26 -31 -35 -39 -40 0
-13 18 -26 31 35 39 -40 0
-13 18 -26 31 35 -39 40 0
-13 18 -26 31 -35 39 40 0
-13 18 -26 31 -35 -39 -40 0
-13 18 -26 -31 35 39 40 0
-13 18 -26 -31 35 -39 -40 0
-13 18 -26 -31 -35 39 -40 0
-13 18 -26 -31 -35 -39 40 0
-13 -18 26 31 35 39 -40 0
-13 -18 26 31 35 -39 40 0
-13 -18 26 31 -35 39 40 0
-13 -18 26 31 -35 -39 -40 0
-13 -18 26 -31 35 39 40 0
-13 -18 26 -31 35 -39 -40 0
-13 -18 26 -31 -35 39 -40 0
-13 -18 26 -31 -35 -39 40 0
-13 -18 -26 31 35 39 40 0
-13 -18 -26 31 35 -39 -40 0
-13 -18 -26 31 -35 39 -40 0
-13 -18 -26 31 -35 -39 40 0
-13 -18 -26 -31 35 39 -40 0
-13 -18 -26 -31 35 -39 40 0
-13 -18 -26 -31 -35 39 40 0
-13 -18 -26 -31 -35 -39 -40 0